1	35	29	5
2	-14	-5	23
3	35	-29	14
4	-10	-35	13
5	-10	-60	8
6	0	24	18
7	-34	-65	19
8	-35	-54	10
9	40	-51	18
10	6	-55	20
11	11	14	5
12	-3	-41	9
13	-35	-44	23
14	25	30	8
15	12	-16	18
16	30	-25	10
17	31	-65	24
18	17	9	13
19	16	29	24
20	-19	-25	8
21	26	30	10
22	5	-6	19
23	10	4	14
24	-10	20	13
25	-3	-61	14
26	-25	-60	2
27	-4	-61	23
28	16	6	15
29	40	-1	8
30	0	-61	20
31	26	14	24
32	-35	-20	3
